(set-info :smt-lib-version 2.6)
(set-logic UFLRA)
(set-info :source |
Generated by: Geoff Sutcliffe
Generated on: 2026-03-11
Generator: TPTPWorld
Application: Benchmarking automated theorem provers
Time limit: 120.0

These benchmarks are translations from the TPTP Library (Thousands of
Problems for Theorem Provers), see http://www.cs.miami.edu/~tptp/

The TPTP is maintained by Geoff Sutcliffe, and he contributed this
selection of benchmarks to SMT-LIB.  They were exported from the
v9.2.1 realease of TPTP.
|)
(set-info :category "industrial")
(set-info :status unknown)
; SZS status Success
(declare-sort $$unsorted 0)
(declare-fun tptp.lg () Real)
(declare-fun tptp.lf () Real)
(declare-fun tptp.f (Real) Real)
(declare-fun tptp.a () Real)
(declare-fun tptp.g (Real) Real)
(assert (forall ((Epsilon Real)) (=> (< 0.0 Epsilon) (exists ((Delta Real)) (and (< 0.0 Delta) (forall ((X Real)) (let ((_let_1 (- (tptp.f X) tptp.lf))) (let ((_let_2 (>= _let_1 0.0))) (let ((_let_3 (- X tptp.a))) (let ((_let_4 (>= _let_3 0.0))) (=> (and (not (= X tptp.a)) (=> _let_4 (< _let_3 Delta)) (=> (not _let_4) (< (- _let_3) Delta))) (and (=> _let_2 (< _let_1 Epsilon)) (=> (not _let_2) (< (- _let_1) Epsilon))))))))))))))
(assert (forall ((Epsilon Real)) (=> (< 0.0 Epsilon) (exists ((Delta Real)) (and (< 0.0 Delta) (forall ((X Real)) (let ((_let_1 (- (tptp.g X) tptp.lg))) (let ((_let_2 (>= _let_1 0.0))) (let ((_let_3 (- X tptp.a))) (let ((_let_4 (>= _let_3 0.0))) (=> (and (not (= X tptp.a)) (=> _let_4 (< _let_3 Delta)) (=> (not _let_4) (< (- _let_3) Delta))) (and (=> _let_2 (< _let_1 Epsilon)) (=> (not _let_2) (< (- _let_1) Epsilon))))))))))))))
(assert (not (forall ((Epsilon Real)) (=> (< 0.0 Epsilon) (exists ((Delta Real)) (and (< 0.0 Delta) (forall ((X Real)) (let ((_let_1 (- (+ (tptp.f X) (tptp.g X)) (+ tptp.lf tptp.lg)))) (let ((_let_2 (>= _let_1 0.0))) (let ((_let_3 (- X tptp.a))) (let ((_let_4 (>= _let_3 0.0))) (=> (and (not (= X tptp.a)) (=> _let_4 (< _let_3 Delta)) (=> (not _let_4) (< (- _let_3) Delta))) (and (=> _let_2 (< _let_1 Epsilon)) (=> (not _let_2) (< (- _let_1) Epsilon)))))))))))))))
(check-sat)
(exit)
